zaligvinder/models/DRE/data797/9718.smt2
(declare-fun x () String)

(assert (str.in.re x (re.++  (str.to.re "\x4e01") (re.++  (str.to.re "\x4e01") (re.++  (str.to.re "\x4e02") (re.++  (str.to.re "\x4e03") (re.++ (re.*  (str.to.re "\x4e04") ) (re.++  (str.to.re "\x4e01") (re.++  (str.to.re "\x4e02") (re.++  (str.to.re "\x4e03") (re.++ (re.*  (str.to.re "\x4e04") ) (re.++  (str.to.re "\x4e01") (re.++  (str.to.re "\x4e02") (re.++  (str.to.re "\x4e03") (re.++ (re.*  (str.to.re "\x4e04") ) (re.++  (str.to.re "\x4e01") (re.++  (str.to.re "\x4e02") (re.++  (str.to.re "\x4e03") (re.++ (re.*  (str.to.re "\x4e04") ) (re.++  (str.to.re "\x4e01") (re.++  (str.to.re "\x4e02") (re.++  (str.to.re "\x4e03") (re.++ (re.*  (str.to.re "\x4e04") ) (re.++  (str.to.re "\x4e01") (re.++  (str.to.re "\x4e02") (re.++  (str.to.re "\x4e05") (re.++  (str.to.re "\x4e03") (re.++ (re.*  (str.to.re "\x4e04") ) (re.++  (str.to.re "\x4e01") (re.++  (str.to.re "\x4e02") (re.++  (str.to.re "\x4e03") (re.++  (str.to.re "\x4e03") (re.++ (re.*  (str.to.re "\x4e04") ) (re.++  (str.to.re "\x4e01") (re.++  (str.to.re "\x4e02") (re.++  (str.to.re "\x4e03") (re.++  (str.to.re "\x4e03") (re.++ (re.*  (str.to.re "\x4e04") ) (re.++  (str.to.re "\x4e01") (re.++  (str.to.re "\x4e02") (re.++  (str.to.re "\x4e03") (re.++  (str.to.re "\x4e03") (re.++ (re.*  (str.to.re "\x4e04") ) (re.++  (str.to.re "\x4e01") (re.++  (str.to.re "\x4e02") (re.++  (str.to.re "\x4e03") (re.++ (re.*  (str.to.re "\x4e04") ) (re.++  (str.to.re "\x4e01") (re.++  (str.to.re "\x4e02") (re.++  (str.to.re "\x4e03") (re.++ (re.*  (str.to.re "\x4e04") ) (re.++  (str.to.re "\x4e01") (re.++  (str.to.re "\x4e02") (re.++  (str.to.re "\x4e03") (re.++  (str.to.re "\x4e03") (re.++ (re.*  (str.to.re "\x4e04") ) (re.++  (str.to.re "\x4e01") (re.++  (str.to.re "\x4e02") (re.++  (str.to.re "\x4e03") (re.++  (str.to.re "\x4e03") (re.++ (re.*  (str.to.re "\x4e04") ) (re.++  (str.to.re "\x4e01") (re.++  (str.to.re "\x4e02") (re.++  (str.to.re "\x4e03") (re.++  (str.to.re "\x4e03") (re.++ (re.*  (str.to.re "\x4e04") ) (re.++  (str.to.re "\x4e01") (re.++  (str.to.re "\x4e02") (re.++  (str.to.re "\x4e03") (re.++  (str.to.re "\x4e03") (re.++ (re.*  (str.to.re "\x4e04") ) (re.++  (str.to.re "\x4e01") (re.++  (str.to.re "\x4e02") (re.++  (str.to.re "\x4e03") (re.++  (str.to.re "\x4e03") (re.++ (re.*  (str.to.re "\x4e04") ) (re.++  (str.to.re "\x4e01") (re.++  (str.to.re "\x4e02") (re.++  (str.to.re "\x4e03") (re.++ (re.*  (str.to.re "\x4e04") ) (re.++  (str.to.re "\x4e01") (re.++  (str.to.re "\x4e02") (re.++  (str.to.re "\x4e03") (re.++  (str.to.re "\x4e03") (re.++ (re.*  (str.to.re "\x4e04") ) (re.++  (str.to.re "\x4e01") (re.++  (str.to.re "\x4e02") (re.++  (str.to.re "\x4e03") (re.++  (str.to.re "\x4e03") (re.++ (re.*  (str.to.re "\x4e04") ) (re.++  (str.to.re "\x4e01") (re.++  (str.to.re "\x4e02") (re.++  (str.to.re "\x4e03") (re.++  (str.to.re "\x4e03") (re.++ (re.*  (str.to.re "\x4e04") ) (re.++  (str.to.re "\x4e01") (re.++  (str.to.re "\x4e02") (re.++  (str.to.re "\x4e03") (re.++ (re.*  (str.to.re "\x4e04") ) (re.++  (str.to.re "\x4e01") (re.++  (str.to.re "\x4e02") (re.++  (str.to.re "\x4e03") (re.++ (re.*  (str.to.re "\x4e04") ) (re.++  (str.to.re "\x4e01") (re.++  (str.to.re "\x4e02") (re.++  (str.to.re "\x4e03") (re.++ (re.*  (str.to.re "\x4e04") ) (re.++  (str.to.re "\x4e01") (re.++  (str.to.re "\x4e02") (re.++  (str.to.re "\x4e03") (re.++ (re.*  (str.to.re "\x4e04") ) (re.++  (str.to.re "\x4e01") (re.++  (str.to.re "\x4e02") (re.++  (str.to.re "\x4e03") (re.++ (re.*  (str.to.re "\x4e04") ) (re.++  (str.to.re "\x4e01") (re.++  (str.to.re "\x4e02") (re.++  (str.to.re "\x4e03") (re.++ (re.*  (str.to.re "\x4e04") ) (re.++  (str.to.re "\x4e01") (re.++  (str.to.re "\x4e02") (re.++  (str.to.re "\x4e03") (re.++ (re.*  (str.to.re "\x4e04") ) (re.++  (str.to.re "\x4e01") (re.++  (str.to.re "\x4e02") (re.++ (re.opt  (str.to.re "\x4e06") ) (re.++  (str.to.re "\x4e03") (re.++ (re.*  (str.to.re "\x4e04") ) (re.++  (str.to.re "\x4e01") (re.++  (str.to.re "\x4e02") (re.++ (re.opt  (str.to.re "\x4e06") ) (re.++  (str.to.re "\x4e03") (re.++ (re.*  (str.to.re "\x4e04") ) (re.++  (str.to.re "\x4e01") (re.++  (str.to.re "\x4e02") (re.++  (str.to.re "\x4e03") (re.++ (re.*  (str.to.re "\x4e04") ) (re.++  (str.to.re "\x4e01") (re.++  (str.to.re "\x4e02") (re.++  (str.to.re "\x4e03") (re.++ (re.*  (str.to.re "\x4e04") ) (re.++  (str.to.re "\x4e01") (re.++  (str.to.re "\x4e02") (re.++ (re.opt  (str.to.re "\x4e05") ) (re.++  (str.to.re "\x4e03") (re.++ (re.*  (str.to.re "\x4e04") ) (re.++  (str.to.re "\x4e01") (re.++  (str.to.re "\x4e02") (re.++ (re.opt  (str.to.re "\x4e05") ) (re.++  (str.to.re "\x4e03") (re.++ (re.*  (str.to.re "\x4e04") ) (re.++  (str.to.re "\x4e01") (re.++  (str.to.re "\x4e02") (re.++ (re.opt  (str.to.re "\x4e05") ) (re.++  (str.to.re "\x4e03") (re.++ (re.*  (str.to.re "\x4e04") ) (re.++  (str.to.re "\x4e01") (re.++  (str.to.re "\x4e02") (re.++ (re.opt  (str.to.re "\x4e05") ) (re.++  (str.to.re "\x4e03") (re.++ (re.*  (str.to.re "\x4e04") ) (re.++  (str.to.re "\x4e01") (re.++  (str.to.re "\x4e07") (re.++  (str.to.re "\x4e08") (re.++ (re.opt  (str.to.re "\x4e05") ) (re.++  (str.to.re "\x4e03") (re.++ (re.*  (str.to.re "\x4e04") ) (re.++  (str.to.re "\x4e01") (re.++  (str.to.re "\x4e02") (re.++  (str.to.re "\x4e08") (re.++ (re.opt  (str.to.re "\x4e05") ) (re.++  (str.to.re "\x4e03") (re.++ (re.*  (str.to.re "\x4e04") )  (str.to.re "\x4e09"))))))))))))))))))))))))))))))))))))))))))))))))))))))))))))))))))))))))))))))))))))))))))))))))))))))))))))))))))))))))))))))))))))))))))))))))))))))))))))))))))))))))))))))
(assert (str.in.re x (re.++ (re.opt  (re.++ (re.*  (re.union  (str.to.re "\x4e01") (re.union  (str.to.re "\x4e02") (re.union  (str.to.re "\x4e03") (re.union  (str.to.re "\x4e04") (re.union  (str.to.re "\x4e05") (re.union  (str.to.re "\x4e06") (re.union  (str.to.re "\x4e07") (re.union  (str.to.re "\x4e08") (re.union  (str.to.re "\x4e09")  (str.to.re "\x4e0a")))))))))) )  (re.union  (re.++  (re.union  (str.to.re "\x4e0b") (re.union  (str.to.re "\x4e0c")  (str.to.re "\x4e0d"))) (re.++ (re.*  (re.union  (str.to.re "\x4e0b") (re.union  (str.to.re "\x4e0c") (re.union  (str.to.re "\x4e0d") (re.union  (str.to.re "\x4e01") (re.union  (str.to.re "\x4e02") (re.union  (str.to.re "\x4e03") (re.union  (str.to.re "\x4e04") (re.union  (str.to.re "\x4e05") (re.union  (str.to.re "\x4e06") (re.union  (str.to.re "\x4e07") (re.union  (str.to.re "\x4e08") (re.union  (str.to.re "\x4e09")  (str.to.re "\x4e0a"))))))))))))) ) (re.++ (re.+  (re.++  (str.to.re "\x4e0e") (re.*  (re.union  (str.to.re "\x4e01") (re.union  (str.to.re "\x4e02") (re.union  (str.to.re "\x4e03") (re.union  (str.to.re "\x4e04") (re.union  (str.to.re "\x4e05") (re.union  (str.to.re "\x4e06") (re.union  (str.to.re "\x4e07") (re.union  (str.to.re "\x4e08") (re.union  (str.to.re "\x4e09")  (str.to.re "\x4e0a")))))))))) )) ) (re.*  (re.++  (re.union  (str.to.re "\x4e0c")  (str.to.re "\x4e0d")) (re.*  (re.union  (str.to.re "\x4e01") (re.union  (str.to.re "\x4e02") (re.union  (str.to.re "\x4e03") (re.union  (str.to.re "\x4e04") (re.union  (str.to.re "\x4e05") (re.union  (str.to.re "\x4e06") (re.union  (str.to.re "\x4e07") (re.union  (str.to.re "\x4e08") (re.union  (str.to.re "\x4e09")  (str.to.re "\x4e0a")))))))))) )) ))))  (re.++ (re.+  (re.++  (str.to.re "\x4e0e") (re.*  (re.union  (str.to.re "\x4e01") (re.union  (str.to.re "\x4e02") (re.union  (str.to.re "\x4e03") (re.union  (str.to.re "\x4e04") (re.union  (str.to.re "\x4e05") (re.union  (str.to.re "\x4e06") (re.union  (str.to.re "\x4e07") (re.union  (str.to.re "\x4e08") (re.union  (str.to.re "\x4e09")  (str.to.re "\x4e0a")))))))))) )) ) (re.*  (re.++  (re.union  (str.to.re "\x4e0b") (re.union  (str.to.re "\x4e0c")  (str.to.re "\x4e0d"))) (re.*  (re.union  (str.to.re "\x4e01") (re.union  (str.to.re "\x4e02") (re.union  (str.to.re "\x4e03") (re.union  (str.to.re "\x4e04") (re.union  (str.to.re "\x4e05") (re.union  (str.to.re "\x4e06") (re.union  (str.to.re "\x4e07") (re.union  (str.to.re "\x4e08") (re.union  (str.to.re "\x4e09")  (str.to.re "\x4e0a")))))))))) )) )))) ) (re.++ (re.*  (re.++  (re.union  (str.to.re "\x4e0f")  (str.to.re "\x4e10")) (re.*  (re.union  (str.to.re "\x4e01") (re.union  (str.to.re "\x4e02") (re.union  (str.to.re "\x4e03") (re.union  (str.to.re "\x4e04") (re.union  (str.to.re "\x4e05") (re.union  (str.to.re "\x4e06") (re.union  (str.to.re "\x4e07") (re.union  (str.to.re "\x4e08") (re.union  (str.to.re "\x4e09")  (str.to.re "\x4e0a")))))))))) )) ) (re.++ (re.*  (re.++  (str.to.re "\x4e11") (re.*  (re.union  (str.to.re "\x4e0c") (re.union  (str.to.re "\x4e0d") (re.union  (str.to.re "\x4e01") (re.union  (str.to.re "\x4e02") (re.union  (str.to.re "\x4e03") (re.union  (str.to.re "\x4e04") (re.union  (str.to.re "\x4e05") (re.union  (str.to.re "\x4e06") (re.union  (str.to.re "\x4e07") (re.union  (str.to.re "\x4e08") (re.union  (str.to.re "\x4e09")  (str.to.re "\x4e0a")))))))))))) )) ) (re.++  (str.to.re "\x4e12") (re.*  (re.union  (str.to.re "\x4e12") (re.union  (str.to.re "\x4e13") (re.union  (str.to.re "\x4e14") (re.union  (str.to.re "\x4e01") (re.union  (str.to.re "\x4e02") (re.union  (str.to.re "\x4e03") (re.union  (str.to.re "\x4e04") (re.union  (str.to.re "\x4e05") (re.union  (str.to.re "\x4e06") (re.union  (str.to.re "\x4e07") (re.union  (str.to.re "\x4e08") (re.union  (str.to.re "\x4e09")  (str.to.re "\x4e0a"))))))))))))) )))))))
(check-sat)
(get-model)