zaligvinder/models/DRE/data797/9718.txt
丁-0.丁-1.丂-2.七-3.丄-4*.丁-5.丂-6.七-7.丄-8*.丁-9.丂-10.七-11.丄-12*.丁-13.丂-14.七-15.丄-16*.丁-17.丂-18.七-19.丄-20*.丁-21.丂-22.丅-23.七-24.丄-25*.丁-26.丂-27.七-28.七-29.丄-30*.丁-31.丂-32.七-33.七-34.丄-35*.丁-36.丂-37.七-38.七-39.丄-40*.丁-41.丂-42.七-43.丄-44*.丁-45.丂-46.七-47.丄-48*.丁-49.丂-50.七-51.七-52.丄-53*.丁-54.丂-55.七-56.七-57.丄-58*.丁-59.丂-60.七-61.七-62.丄-63*.丁-64.丂-65.七-66.七-67.丄-68*.丁-69.丂-70.七-71.七-72.丄-73*.丁-74.丂-75.七-76.丄-77*.丁-78.丂-79.七-80.七-81.丄-82*.丁-83.丂-84.七-85.七-86.丄-87*.丁-88.丂-89.七-90.七-91.丄-92*.丁-93.丂-94.七-95.丄-96*.丁-97.丂-98.七-99.丄-100*.丁-101.丂-102.七-103.丄-104*.丁-105.丂-106.七-107.丄-108*.丁-109.丂-110.七-111.丄-112*.丁-113.丂-114.七-115.丄-116*.丁-117.丂-118.七-119.丄-120*.丁-121.丂-122.丆-123?.七-124.丄-125*.丁-126.丂-127.丆-128?.七-129.丄-130*.丁-131.丂-132.七-133.丄-134*.丁-135.丂-136.七-137.丄-138*.丁-139.丂-140.丅-141?.七-142.丄-143*.丁-144.丂-145.丅-146?.七-147.丄-148*.丁-149.丂-150.丅-151?.七-152.丄-153*.丁-154.丂-155.丅-156?.七-157.丄-158*.丁-159.万-160.丈-161.丅-162?.七-163.丄-164*.丁-165.丂-166.丈-167.丅-168?.七-169.丄-170*.三-171
((丁-0|丂-1|七-2|丄-3|丅-4|丆-5|万-6|丈-7|三-8|上-9)*.((下-10|丌-11|不-12).(下-13|丌-14|不-15|丁-16|丂-17|七-18|丄-19|丅-20|丆-21|万-22|丈-23|三-24|上-25)*.(与-26.(丁-27|丂-28|七-29|丄-30|丅-31|丆-32|万-33|丈-34|三-35|上-36)*)+.((丌-37|不-38).(丁-39|丂-40|七-41|丄-42|丅-43|丆-44|万-45|丈-46|三-47|上-48)*)*|(与-49.(丁-50|丂-51|七-52|丄-53|丅-54|丆-55|万-56|丈-57|三-58|上-59)*)+.((下-60|丌-61|不-62).(丁-63|丂-64|七-65|丄-66|丅-67|丆-68|万-69|丈-70|三-71|上-72)*)*))?.((丏-73|丐-74).(丁-75|丂-76|七-77|丄-78|丅-79|丆-80|万-81|丈-82|三-83|上-84)*)*.(丑-85.(丌-86|不-87|丁-88|丂-89|七-90|丄-91|丅-92|丆-93|万-94|丈-95|三-96|上-97)*)*.丒-98.(丒-99|专-100|且-101|丁-102|丂-103|七-104|丄-105|丅-106|丆-107|万-108|丈-109|三-110|上-111)*
